files/upTests/__essence_catalog/prob007-n/0001.eprime.solution
language ESSENCE' 1.0
$ minion Nodes: 4409
$ minion TotalTime: 0.189501
$ Savile Row TotalTime: 3.175
letting v_AsReln_RelationAsSet_ExplicitVarSize_tuple2_tuple2 be [1, 1, 2, 1]
letting s_AsReln_RelationAsSet_ExplicitVarSize_tuple1 be [0, 0, 0, 0, 0, 0, 1, 1, 1]
letting v_AsReln_RelationAsSet_ExplicitVarSize_tuple2_tuple1 be [1, 1, 1, 2]
letting s_AsReln_RelationAsSet_ExplicitVarSize_tuple2_tuple2 be [0, 0, 0, 0, 0, 0, 0, 2, 1]
letting s_AsReln_RelationAsSet_ExplicitVarSize_tuple2_tuple1 be [1, 1, 1, 1, 1, 1, 1, 2, 3]
letting v_AsReln_RelationAsSet_ExplicitVarSize_tuple1 be [0, 0, 1, 1]
